c CNF file corresponding to a (partial) station packing problem.
p cnf 6952 229
6936 6937 6938 6939 6940 6941 6942 6943 6944 6945 6946 6947 6948 6949 6950 6951 6952 0
-6936 -6937 0
-6936 -6938 0
-6936 -6939 0
-6936 -6940 0
-6936 -6941 0
-6936 -6942 0
-6936 -6943 0
-6936 -6944 0
-6936 -6945 0
-6936 -6946 0
-6936 -6947 0
-6936 -6948 0
-6936 -6949 0
-6936 -6950 0
-6936 -6951 0
-6936 -6952 0
-6937 -6938 0
-6937 -6939 0
-6937 -6940 0
-6937 -6941 0
-6937 -6942 0
-6937 -6943 0
-6937 -6944 0
-6937 -6945 0
-6937 -6946 0
-6937 -6947 0
-6937 -6948 0
-6937 -6949 0
-6937 -6950 0
-6937 -6951 0
-6937 -6952 0
-6938 -6939 0
-6938 -6940 0
-6938 -6941 0
-6938 -6942 0
-6938 -6943 0
-6938 -6944 0
-6938 -6945 0
-6938 -6946 0
-6938 -6947 0
-6938 -6948 0
-6938 -6949 0
-6938 -6950 0
-6938 -6951 0
-6938 -6952 0
-6939 -6940 0
-6939 -6941 0
-6939 -6942 0
-6939 -6943 0
-6939 -6944 0
-6939 -6945 0
-6939 -6946 0
-6939 -6947 0
-6939 -6948 0
-6939 -6949 0
-6939 -6950 0
-6939 -6951 0
-6939 -6952 0
-6940 -6941 0
-6940 -6942 0
-6940 -6943 0
-6940 -6944 0
-6940 -6945 0
-6940 -6946 0
-6940 -6947 0
-6940 -6948 0
-6940 -6949 0
-6940 -6950 0
-6940 -6951 0
-6940 -6952 0
-6941 -6942 0
-6941 -6943 0
-6941 -6944 0
-6941 -6945 0
-6941 -6946 0
-6941 -6947 0
-6941 -6948 0
-6941 -6949 0
-6941 -6950 0
-6941 -6951 0
-6941 -6952 0
-6942 -6943 0
-6942 -6944 0
-6942 -6945 0
-6942 -6946 0
-6942 -6947 0
-6942 -6948 0
-6942 -6949 0
-6942 -6950 0
-6942 -6951 0
-6942 -6952 0
-6943 -6944 0
-6943 -6945 0
-6943 -6946 0
-6943 -6947 0
-6943 -6948 0
-6943 -6949 0
-6943 -6950 0
-6943 -6951 0
-6943 -6952 0
-6944 -6945 0
-6944 -6946 0
-6944 -6947 0
-6944 -6948 0
-6944 -6949 0
-6944 -6950 0
-6944 -6951 0
-6944 -6952 0
-6945 -6946 0
-6945 -6947 0
-6945 -6948 0
-6945 -6949 0
-6945 -6950 0
-6945 -6951 0
-6945 -6952 0
-6946 -6947 0
-6946 -6948 0
-6946 -6949 0
-6946 -6950 0
-6946 -6951 0
-6946 -6952 0
-6947 -6948 0
-6947 -6949 0
-6947 -6950 0
-6947 -6951 0
-6947 -6952 0
-6948 -6949 0
-6948 -6950 0
-6948 -6951 0
-6948 -6952 0
-6949 -6950 0
-6949 -6951 0
-6949 -6952 0
-6950 -6951 0
-6950 -6952 0
-6951 -6952 0
1 2 3 4 5 6 7 8 9 10 11 12 13 14 0
-1 -2 0
-1 -3 0
-1 -4 0
-1 -5 0
-1 -6 0
-1 -7 0
-1 -8 0
-1 -9 0
-1 -10 0
-1 -11 0
-1 -12 0
-1 -13 0
-1 -14 0
-2 -3 0
-2 -4 0
-2 -5 0
-2 -6 0
-2 -7 0
-2 -8 0
-2 -9 0
-2 -10 0
-2 -11 0
-2 -12 0
-2 -13 0
-2 -14 0
-3 -4 0
-3 -5 0
-3 -6 0
-3 -7 0
-3 -8 0
-3 -9 0
-3 -10 0
-3 -11 0
-3 -12 0
-3 -13 0
-3 -14 0
-4 -5 0
-4 -6 0
-4 -7 0
-4 -8 0
-4 -9 0
-4 -10 0
-4 -11 0
-4 -12 0
-4 -13 0
-4 -14 0
-5 -6 0
-5 -7 0
-5 -8 0
-5 -9 0
-5 -10 0
-5 -11 0
-5 -12 0
-5 -13 0
-5 -14 0
-6 -7 0
-6 -8 0
-6 -9 0
-6 -10 0
-6 -11 0
-6 -12 0
-6 -13 0
-6 -14 0
-7 -8 0
-7 -9 0
-7 -10 0
-7 -11 0
-7 -12 0
-7 -13 0
-7 -14 0
-8 -9 0
-8 -10 0
-8 -11 0
-8 -12 0
-8 -13 0
-8 -14 0
-9 -10 0
-9 -11 0
-9 -12 0
-9 -13 0
-9 -14 0
-10 -11 0
-10 -12 0
-10 -13 0
-10 -14 0
-11 -12 0
-11 -13 0
-11 -14 0
-12 -13 0
-12 -14 0
-13 -14 0
